c cksystemsgroup.github.io/unicorn
c CNF contains a total of 1284 clauses.
c CNF contains a total of 393 variables.
c CNF clauses cover 1 bad states.
c Variable name mapping (113 names):
c   2: input[bit=55]
c   5: input[bit=54]
c   8: input[bit=53]
c   11: input[bit=52]
c   14: input[bit=51]
c   17: input[bit=50]
c   20: input[bit=49]
c   23: input[bit=48]
c   26: input[bit=47]
c   29: input[bit=46]
c   32: input[bit=45]
c   35: input[bit=44]
c   38: input[bit=43]
c   41: input[bit=42]
c   44: input[bit=41]
c   47: input[bit=40]
c   50: input[bit=39]
c   53: input[bit=38]
c   56: input[bit=37]
c   59: input[bit=36]
c   62: input[bit=35]
c   65: input[bit=34]
c   68: input[bit=33]
c   71: input[bit=32]
c   74: input[bit=31]
c   77: input[bit=30]
c   80: input[bit=29]
c   83: input[bit=28]
c   86: input[bit=27]
c   89: input[bit=26]
c   92: input[bit=25]
c   95: input[bit=24]
c   98: input[bit=23]
c   101: input[bit=22]
c   104: input[bit=21]
c   107: input[bit=20]
c   110: input[bit=19]
c   113: input[bit=18]
c   116: input[bit=17]
c   119: input[bit=16]
c   122: input[bit=15]
c   125: input[bit=14]
c   128: input[bit=13]
c   131: input[bit=12]
c   134: input[bit=11]
c   137: input[bit=10]
c   140: input[bit=9]
c   143: input[bit=8]
c   146: input[bit=7]
c   149: input[bit=6]
c   152: input[bit=5]
c   155: input[bit=4]
c   158: input[bit=3]
c   161: input[bit=2]
c   164: input[bit=1]
c   167: input[bit=0]
c   225: input[bit=55]
c   227: input[bit=54]
c   229: input[bit=53]
c   231: input[bit=52]
c   233: input[bit=51]
c   235: input[bit=50]
c   237: input[bit=49]
c   239: input[bit=48]
c   241: input[bit=47]
c   243: input[bit=46]
c   245: input[bit=45]
c   247: input[bit=44]
c   249: input[bit=43]
c   251: input[bit=42]
c   253: input[bit=41]
c   255: input[bit=40]
c   257: input[bit=39]
c   259: input[bit=38]
c   261: input[bit=37]
c   263: input[bit=36]
c   265: input[bit=35]
c   267: input[bit=34]
c   269: input[bit=33]
c   271: input[bit=32]
c   273: input[bit=31]
c   275: input[bit=30]
c   277: input[bit=29]
c   279: input[bit=28]
c   281: input[bit=27]
c   283: input[bit=26]
c   285: input[bit=25]
c   287: input[bit=24]
c   289: input[bit=23]
c   291: input[bit=22]
c   293: input[bit=21]
c   295: input[bit=20]
c   297: input[bit=19]
c   299: input[bit=18]
c   301: input[bit=17]
c   303: input[bit=16]
c   305: input[bit=15]
c   307: input[bit=14]
c   309: input[bit=13]
c   311: input[bit=12]
c   313: input[bit=11]
c   315: input[bit=10]
c   317: input[bit=9]
c   319: input[bit=8]
c   321: input[bit=7]
c   323: input[bit=6]
c   325: input[bit=5]
c   327: input[bit=4]
c   329: input[bit=3]
c   331: input[bit=2]
c   333: input[bit=1]
c   335: input[bit=0]
c   393: ?
p cnf 393 1284
-1 0
-2 -3 0
2 3 0
-4 0
-5 -6 0
5 6 0
-7 0
-8 -9 0
8 9 0
-10 0
-11 -12 0
11 12 0
-13 0
-14 -15 0
14 15 0
-16 0
-17 -18 0
17 18 0
-19 0
-20 -21 0
20 21 0
-22 0
-23 -24 0
23 24 0
-25 0
-26 -27 0
26 27 0
-28 0
-29 -30 0
29 30 0
-31 0
-32 -33 0
32 33 0
-34 0
-35 -36 0
35 36 0
-37 0
-38 -39 0
38 39 0
-40 0
-41 -42 0
41 42 0
-43 0
-44 -45 0
44 45 0
-46 0
-47 -48 0
47 48 0
-49 0
-50 -51 0
50 51 0
-52 0
-53 -54 0
53 54 0
-55 0
-56 -57 0
56 57 0
-58 0
-59 -60 0
59 60 0
-61 0
-62 -63 0
62 63 0
-64 0
-65 -66 0
65 66 0
-67 0
-68 -69 0
68 69 0
-70 0
-71 -72 0
71 72 0
-73 0
-74 -75 0
74 75 0
-76 0
-77 -78 0
77 78 0
-79 0
-80 -81 0
80 81 0
-82 0
-83 -84 0
83 84 0
-85 0
-86 -87 0
86 87 0
-88 0
-89 -90 0
89 90 0
-91 0
-92 -93 0
92 93 0
-94 0
-95 -96 0
95 96 0
-97 0
-98 -99 0
98 99 0
-100 0
-101 -102 0
101 102 0
-103 0
-104 -105 0
104 105 0
-106 0
-107 -108 0
107 108 0
-109 0
-110 -111 0
110 111 0
-112 0
-113 -114 0
113 114 0
-115 0
-116 -117 0
116 117 0
-118 0
-119 -120 0
119 120 0
-121 0
-122 -123 0
122 123 0
-124 0
-125 -126 0
125 126 0
-127 0
-128 -129 0
128 129 0
-130 0
-131 -132 0
131 132 0
-133 0
-134 -135 0
134 135 0
-136 0
-137 -138 0
137 138 0
-139 0
-140 -141 0
140 141 0
-142 0
-143 -144 0
143 144 0
-145 0
-146 -147 0
146 147 0
-148 0
-149 -150 0
149 150 0
-151 0
-152 -153 0
152 153 0
-154 0
-155 -156 0
155 156 0
-157 0
-158 -159 0
158 159 0
-160 0
-161 -162 0
161 162 0
-163 0
-164 -165 0
164 165 0
-166 0
-167 -168 0
167 168 0
165 166 -169 0
165 168 -169 0
-166 -168 169 0
166 168 -169 0
-165 -168 169 0
-165 -166 169 0
162 163 -170 0
162 169 -170 0
-163 -169 170 0
163 169 -170 0
-162 -169 170 0
-162 -163 170 0
159 160 -171 0
159 170 -171 0
-160 -170 171 0
160 170 -171 0
-159 -170 171 0
-159 -160 171 0
156 157 -172 0
156 171 -172 0
-157 -171 172 0
157 171 -172 0
-156 -171 172 0
-156 -157 172 0
153 154 -173 0
153 172 -173 0
-154 -172 173 0
154 172 -173 0
-153 -172 173 0
-153 -154 173 0
150 151 -174 0
150 173 -174 0
-151 -173 174 0
151 173 -174 0
-150 -173 174 0
-150 -151 174 0
147 148 -175 0
147 174 -175 0
-148 -174 175 0
148 174 -175 0
-147 -174 175 0
-147 -148 175 0
144 145 -176 0
144 175 -176 0
-145 -175 176 0
145 175 -176 0
-144 -175 176 0
-144 -145 176 0
141 142 -177 0
141 176 -177 0
-142 -176 177 0
142 176 -177 0
-141 -176 177 0
-141 -142 177 0
138 139 -178 0
138 177 -178 0
-139 -177 178 0
139 177 -178 0
-138 -177 178 0
-138 -139 178 0
135 136 -179 0
135 178 -179 0
-136 -178 179 0
136 178 -179 0
-135 -178 179 0
-135 -136 179 0
132 133 -180 0
132 179 -180 0
-133 -179 180 0
133 179 -180 0
-132 -179 180 0
-132 -133 180 0
129 130 -181 0
129 180 -181 0
-130 -180 181 0
130 180 -181 0
-129 -180 181 0
-129 -130 181 0
126 127 -182 0
126 181 -182 0
-127 -181 182 0
127 181 -182 0
-126 -181 182 0
-126 -127 182 0
123 124 -183 0
123 182 -183 0
-124 -182 183 0
124 182 -183 0
-123 -182 183 0
-123 -124 183 0
120 121 -184 0
120 183 -184 0
-121 -183 184 0
121 183 -184 0
-120 -183 184 0
-120 -121 184 0
117 118 -185 0
117 184 -185 0
-118 -184 185 0
118 184 -185 0
-117 -184 185 0
-117 -118 185 0
114 115 -186 0
114 185 -186 0
-115 -185 186 0
115 185 -186 0
-114 -185 186 0
-114 -115 186 0
111 112 -187 0
111 186 -187 0
-112 -186 187 0
112 186 -187 0
-111 -186 187 0
-111 -112 187 0
108 109 -188 0
108 187 -188 0
-109 -187 188 0
109 187 -188 0
-108 -187 188 0
-108 -109 188 0
105 106 -189 0
105 188 -189 0
-106 -188 189 0
106 188 -189 0
-105 -188 189 0
-105 -106 189 0
102 103 -190 0
102 189 -190 0
-103 -189 190 0
103 189 -190 0
-102 -189 190 0
-102 -103 190 0
99 100 -191 0
99 190 -191 0
-100 -190 191 0
100 190 -191 0
-99 -190 191 0
-99 -100 191 0
96 97 -192 0
96 191 -192 0
-97 -191 192 0
97 191 -192 0
-96 -191 192 0
-96 -97 192 0
93 94 -193 0
93 192 -193 0
-94 -192 193 0
94 192 -193 0
-93 -192 193 0
-93 -94 193 0
90 91 -194 0
90 193 -194 0
-91 -193 194 0
91 193 -194 0
-90 -193 194 0
-90 -91 194 0
87 88 -195 0
87 194 -195 0
-88 -194 195 0
88 194 -195 0
-87 -194 195 0
-87 -88 195 0
84 85 -196 0
84 195 -196 0
-85 -195 196 0
85 195 -196 0
-84 -195 196 0
-84 -85 196 0
81 82 -197 0
81 196 -197 0
-82 -196 197 0
82 196 -197 0
-81 -196 197 0
-81 -82 197 0
78 79 -198 0
78 197 -198 0
-79 -197 198 0
79 197 -198 0
-78 -197 198 0
-78 -79 198 0
75 76 -199 0
75 198 -199 0
-76 -198 199 0
76 198 -199 0
-75 -198 199 0
-75 -76 199 0
72 73 -200 0
72 199 -200 0
-73 -199 200 0
73 199 -200 0
-72 -199 200 0
-72 -73 200 0
69 70 -201 0
69 200 -201 0
-70 -200 201 0
70 200 -201 0
-69 -200 201 0
-69 -70 201 0
66 67 -202 0
66 201 -202 0
-67 -201 202 0
67 201 -202 0
-66 -201 202 0
-66 -67 202 0
63 64 -203 0
63 202 -203 0
-64 -202 203 0
64 202 -203 0
-63 -202 203 0
-63 -64 203 0
60 61 -204 0
60 203 -204 0
-61 -203 204 0
61 203 -204 0
-60 -203 204 0
-60 -61 204 0
57 58 -205 0
57 204 -205 0
-58 -204 205 0
58 204 -205 0
-57 -204 205 0
-57 -58 205 0
54 55 -206 0
54 205 -206 0
-55 -205 206 0
55 205 -206 0
-54 -205 206 0
-54 -55 206 0
51 52 -207 0
51 206 -207 0
-52 -206 207 0
52 206 -207 0
-51 -206 207 0
-51 -52 207 0
48 49 -208 0
48 207 -208 0
-49 -207 208 0
49 207 -208 0
-48 -207 208 0
-48 -49 208 0
45 46 -209 0
45 208 -209 0
-46 -208 209 0
46 208 -209 0
-45 -208 209 0
-45 -46 209 0
42 43 -210 0
42 209 -210 0
-43 -209 210 0
43 209 -210 0
-42 -209 210 0
-42 -43 210 0
39 40 -211 0
39 210 -211 0
-40 -210 211 0
40 210 -211 0
-39 -210 211 0
-39 -40 211 0
36 37 -212 0
36 211 -212 0
-37 -211 212 0
37 211 -212 0
-36 -211 212 0
-36 -37 212 0
33 34 -213 0
33 212 -213 0
-34 -212 213 0
34 212 -213 0
-33 -212 213 0
-33 -34 213 0
30 31 -214 0
30 213 -214 0
-31 -213 214 0
31 213 -214 0
-30 -213 214 0
-30 -31 214 0
27 28 -215 0
27 214 -215 0
-28 -214 215 0
28 214 -215 0
-27 -214 215 0
-27 -28 215 0
24 25 -216 0
24 215 -216 0
-25 -215 216 0
25 215 -216 0
-24 -215 216 0
-24 -25 216 0
21 22 -217 0
21 216 -217 0
-22 -216 217 0
22 216 -217 0
-21 -216 217 0
-21 -22 217 0
18 19 -218 0
18 217 -218 0
-19 -217 218 0
19 217 -218 0
-18 -217 218 0
-18 -19 218 0
15 16 -219 0
15 218 -219 0
-16 -218 219 0
16 218 -219 0
-15 -218 219 0
-15 -16 219 0
12 13 -220 0
12 219 -220 0
-13 -219 220 0
13 219 -220 0
-12 -219 220 0
-12 -13 220 0
9 10 -221 0
9 220 -221 0
-10 -220 221 0
10 220 -221 0
-9 -220 221 0
-9 -10 221 0
6 7 -222 0
6 221 -222 0
-7 -221 222 0
7 221 -222 0
-6 -221 222 0
-6 -7 222 0
3 4 -223 0
3 222 -223 0
-4 -222 223 0
4 222 -223 0
-3 -222 223 0
-3 -4 223 0
-223 -224 0
223 224 0
3 4 222 -226 0
3 4 -222 226 0
3 -4 222 226 0
3 -4 -222 -226 0
-3 4 222 226 0
-3 4 -222 -226 0
-3 -4 222 -226 0
-3 -4 -222 226 0
6 7 221 -228 0
6 7 -221 228 0
6 -7 221 228 0
6 -7 -221 -228 0
-6 7 221 228 0
-6 7 -221 -228 0
-6 -7 221 -228 0
-6 -7 -221 228 0
9 10 220 -230 0
9 10 -220 230 0
9 -10 220 230 0
9 -10 -220 -230 0
-9 10 220 230 0
-9 10 -220 -230 0
-9 -10 220 -230 0
-9 -10 -220 230 0
12 13 219 -232 0
12 13 -219 232 0
12 -13 219 232 0
12 -13 -219 -232 0
-12 13 219 232 0
-12 13 -219 -232 0
-12 -13 219 -232 0
-12 -13 -219 232 0
15 16 218 -234 0
15 16 -218 234 0
15 -16 218 234 0
15 -16 -218 -234 0
-15 16 218 234 0
-15 16 -218 -234 0
-15 -16 218 -234 0
-15 -16 -218 234 0
18 19 217 -236 0
18 19 -217 236 0
18 -19 217 236 0
18 -19 -217 -236 0
-18 19 217 236 0
-18 19 -217 -236 0
-18 -19 217 -236 0
-18 -19 -217 236 0
21 22 216 -238 0
21 22 -216 238 0
21 -22 216 238 0
21 -22 -216 -238 0
-21 22 216 238 0
-21 22 -216 -238 0
-21 -22 216 -238 0
-21 -22 -216 238 0
24 25 215 -240 0
24 25 -215 240 0
24 -25 215 240 0
24 -25 -215 -240 0
-24 25 215 240 0
-24 25 -215 -240 0
-24 -25 215 -240 0
-24 -25 -215 240 0
27 28 214 -242 0
27 28 -214 242 0
27 -28 214 242 0
27 -28 -214 -242 0
-27 28 214 242 0
-27 28 -214 -242 0
-27 -28 214 -242 0
-27 -28 -214 242 0
30 31 213 -244 0
30 31 -213 244 0
30 -31 213 244 0
30 -31 -213 -244 0
-30 31 213 244 0
-30 31 -213 -244 0
-30 -31 213 -244 0
-30 -31 -213 244 0
33 34 212 -246 0
33 34 -212 246 0
33 -34 212 246 0
33 -34 -212 -246 0
-33 34 212 246 0
-33 34 -212 -246 0
-33 -34 212 -246 0
-33 -34 -212 246 0
36 37 211 -248 0
36 37 -211 248 0
36 -37 211 248 0
36 -37 -211 -248 0
-36 37 211 248 0
-36 37 -211 -248 0
-36 -37 211 -248 0
-36 -37 -211 248 0
39 40 210 -250 0
39 40 -210 250 0
39 -40 210 250 0
39 -40 -210 -250 0
-39 40 210 250 0
-39 40 -210 -250 0
-39 -40 210 -250 0
-39 -40 -210 250 0
42 43 209 -252 0
42 43 -209 252 0
42 -43 209 252 0
42 -43 -209 -252 0
-42 43 209 252 0
-42 43 -209 -252 0
-42 -43 209 -252 0
-42 -43 -209 252 0
45 46 208 -254 0
45 46 -208 254 0
45 -46 208 254 0
45 -46 -208 -254 0
-45 46 208 254 0
-45 46 -208 -254 0
-45 -46 208 -254 0
-45 -46 -208 254 0
48 49 207 -256 0
48 49 -207 256 0
48 -49 207 256 0
48 -49 -207 -256 0
-48 49 207 256 0
-48 49 -207 -256 0
-48 -49 207 -256 0
-48 -49 -207 256 0
51 52 206 -258 0
51 52 -206 258 0
51 -52 206 258 0
51 -52 -206 -258 0
-51 52 206 258 0
-51 52 -206 -258 0
-51 -52 206 -258 0
-51 -52 -206 258 0
54 55 205 -260 0
54 55 -205 260 0
54 -55 205 260 0
54 -55 -205 -260 0
-54 55 205 260 0
-54 55 -205 -260 0
-54 -55 205 -260 0
-54 -55 -205 260 0
57 58 204 -262 0
57 58 -204 262 0
57 -58 204 262 0
57 -58 -204 -262 0
-57 58 204 262 0
-57 58 -204 -262 0
-57 -58 204 -262 0
-57 -58 -204 262 0
60 61 203 -264 0
60 61 -203 264 0
60 -61 203 264 0
60 -61 -203 -264 0
-60 61 203 264 0
-60 61 -203 -264 0
-60 -61 203 -264 0
-60 -61 -203 264 0
63 64 202 -266 0
63 64 -202 266 0
63 -64 202 266 0
63 -64 -202 -266 0
-63 64 202 266 0
-63 64 -202 -266 0
-63 -64 202 -266 0
-63 -64 -202 266 0
66 67 201 -268 0
66 67 -201 268 0
66 -67 201 268 0
66 -67 -201 -268 0
-66 67 201 268 0
-66 67 -201 -268 0
-66 -67 201 -268 0
-66 -67 -201 268 0
69 70 200 -270 0
69 70 -200 270 0
69 -70 200 270 0
69 -70 -200 -270 0
-69 70 200 270 0
-69 70 -200 -270 0
-69 -70 200 -270 0
-69 -70 -200 270 0
72 73 199 -272 0
72 73 -199 272 0
72 -73 199 272 0
72 -73 -199 -272 0
-72 73 199 272 0
-72 73 -199 -272 0
-72 -73 199 -272 0
-72 -73 -199 272 0
75 76 198 -274 0
75 76 -198 274 0
75 -76 198 274 0
75 -76 -198 -274 0
-75 76 198 274 0
-75 76 -198 -274 0
-75 -76 198 -274 0
-75 -76 -198 274 0
78 79 197 -276 0
78 79 -197 276 0
78 -79 197 276 0
78 -79 -197 -276 0
-78 79 197 276 0
-78 79 -197 -276 0
-78 -79 197 -276 0
-78 -79 -197 276 0
81 82 196 -278 0
81 82 -196 278 0
81 -82 196 278 0
81 -82 -196 -278 0
-81 82 196 278 0
-81 82 -196 -278 0
-81 -82 196 -278 0
-81 -82 -196 278 0
84 85 195 -280 0
84 85 -195 280 0
84 -85 195 280 0
84 -85 -195 -280 0
-84 85 195 280 0
-84 85 -195 -280 0
-84 -85 195 -280 0
-84 -85 -195 280 0
87 88 194 -282 0
87 88 -194 282 0
87 -88 194 282 0
87 -88 -194 -282 0
-87 88 194 282 0
-87 88 -194 -282 0
-87 -88 194 -282 0
-87 -88 -194 282 0
90 91 193 -284 0
90 91 -193 284 0
90 -91 193 284 0
90 -91 -193 -284 0
-90 91 193 284 0
-90 91 -193 -284 0
-90 -91 193 -284 0
-90 -91 -193 284 0
93 94 192 -286 0
93 94 -192 286 0
93 -94 192 286 0
93 -94 -192 -286 0
-93 94 192 286 0
-93 94 -192 -286 0
-93 -94 192 -286 0
-93 -94 -192 286 0
96 97 191 -288 0
96 97 -191 288 0
96 -97 191 288 0
96 -97 -191 -288 0
-96 97 191 288 0
-96 97 -191 -288 0
-96 -97 191 -288 0
-96 -97 -191 288 0
99 100 190 -290 0
99 100 -190 290 0
99 -100 190 290 0
99 -100 -190 -290 0
-99 100 190 290 0
-99 100 -190 -290 0
-99 -100 190 -290 0
-99 -100 -190 290 0
102 103 189 -292 0
102 103 -189 292 0
102 -103 189 292 0
102 -103 -189 -292 0
-102 103 189 292 0
-102 103 -189 -292 0
-102 -103 189 -292 0
-102 -103 -189 292 0
105 106 188 -294 0
105 106 -188 294 0
105 -106 188 294 0
105 -106 -188 -294 0
-105 106 188 294 0
-105 106 -188 -294 0
-105 -106 188 -294 0
-105 -106 -188 294 0
108 109 187 -296 0
108 109 -187 296 0
108 -109 187 296 0
108 -109 -187 -296 0
-108 109 187 296 0
-108 109 -187 -296 0
-108 -109 187 -296 0
-108 -109 -187 296 0
111 112 186 -298 0
111 112 -186 298 0
111 -112 186 298 0
111 -112 -186 -298 0
-111 112 186 298 0
-111 112 -186 -298 0
-111 -112 186 -298 0
-111 -112 -186 298 0
114 115 185 -300 0
114 115 -185 300 0
114 -115 185 300 0
114 -115 -185 -300 0
-114 115 185 300 0
-114 115 -185 -300 0
-114 -115 185 -300 0
-114 -115 -185 300 0
117 118 184 -302 0
117 118 -184 302 0
117 -118 184 302 0
117 -118 -184 -302 0
-117 118 184 302 0
-117 118 -184 -302 0
-117 -118 184 -302 0
-117 -118 -184 302 0
120 121 183 -304 0
120 121 -183 304 0
120 -121 183 304 0
120 -121 -183 -304 0
-120 121 183 304 0
-120 121 -183 -304 0
-120 -121 183 -304 0
-120 -121 -183 304 0
123 124 182 -306 0
123 124 -182 306 0
123 -124 182 306 0
123 -124 -182 -306 0
-123 124 182 306 0
-123 124 -182 -306 0
-123 -124 182 -306 0
-123 -124 -182 306 0
126 127 181 -308 0
126 127 -181 308 0
126 -127 181 308 0
126 -127 -181 -308 0
-126 127 181 308 0
-126 127 -181 -308 0
-126 -127 181 -308 0
-126 -127 -181 308 0
129 130 180 -310 0
129 130 -180 310 0
129 -130 180 310 0
129 -130 -180 -310 0
-129 130 180 310 0
-129 130 -180 -310 0
-129 -130 180 -310 0
-129 -130 -180 310 0
132 133 179 -312 0
132 133 -179 312 0
132 -133 179 312 0
132 -133 -179 -312 0
-132 133 179 312 0
-132 133 -179 -312 0
-132 -133 179 -312 0
-132 -133 -179 312 0
135 136 178 -314 0
135 136 -178 314 0
135 -136 178 314 0
135 -136 -178 -314 0
-135 136 178 314 0
-135 136 -178 -314 0
-135 -136 178 -314 0
-135 -136 -178 314 0
138 139 177 -316 0
138 139 -177 316 0
138 -139 177 316 0
138 -139 -177 -316 0
-138 139 177 316 0
-138 139 -177 -316 0
-138 -139 177 -316 0
-138 -139 -177 316 0
141 142 176 -318 0
141 142 -176 318 0
141 -142 176 318 0
141 -142 -176 -318 0
-141 142 176 318 0
-141 142 -176 -318 0
-141 -142 176 -318 0
-141 -142 -176 318 0
144 145 175 -320 0
144 145 -175 320 0
144 -145 175 320 0
144 -145 -175 -320 0
-144 145 175 320 0
-144 145 -175 -320 0
-144 -145 175 -320 0
-144 -145 -175 320 0
147 148 174 -322 0
147 148 -174 322 0
147 -148 174 322 0
147 -148 -174 -322 0
-147 148 174 322 0
-147 148 -174 -322 0
-147 -148 174 -322 0
-147 -148 -174 322 0
150 151 173 -324 0
150 151 -173 324 0
150 -151 173 324 0
150 -151 -173 -324 0
-150 151 173 324 0
-150 151 -173 -324 0
-150 -151 173 -324 0
-150 -151 -173 324 0
153 154 172 -326 0
153 154 -172 326 0
153 -154 172 326 0
153 -154 -172 -326 0
-153 154 172 326 0
-153 154 -172 -326 0
-153 -154 172 -326 0
-153 -154 -172 326 0
156 157 171 -328 0
156 157 -171 328 0
156 -157 171 328 0
156 -157 -171 -328 0
-156 157 171 328 0
-156 157 -171 -328 0
-156 -157 171 -328 0
-156 -157 -171 328 0
159 160 170 -330 0
159 160 -170 330 0
159 -160 170 330 0
159 -160 -170 -330 0
-159 160 170 330 0
-159 160 -170 -330 0
-159 -160 170 -330 0
-159 -160 -170 330 0
162 163 169 -332 0
162 163 -169 332 0
162 -163 169 332 0
162 -163 -169 -332 0
-162 163 169 332 0
-162 163 -169 -332 0
-162 -163 169 -332 0
-162 -163 -169 332 0
165 166 168 -334 0
165 166 -168 334 0
165 -166 168 334 0
165 -166 -168 -334 0
-165 166 168 334 0
-165 166 -168 -334 0
-165 -166 168 -334 0
-165 -166 -168 334 0
-168 -336 0
168 336 0
-335 -336 337 0
335 -337 0
336 -337 0
333 334 -338 0
333 337 -338 0
-334 -337 338 0
334 337 -338 0
-333 -337 338 0
-333 -334 338 0
331 332 -339 0
331 338 -339 0
-332 -338 339 0
332 338 -339 0
-331 -338 339 0
-331 -332 339 0
329 330 -340 0
329 339 -340 0
-330 -339 340 0
330 339 -340 0
-329 -339 340 0
-329 -330 340 0
327 328 -341 0
327 340 -341 0
-328 -340 341 0
328 340 -341 0
-327 -340 341 0
-327 -328 341 0
325 326 -342 0
325 341 -342 0
-326 -341 342 0
326 341 -342 0
-325 -341 342 0
-325 -326 342 0
323 324 -343 0
323 342 -343 0
-324 -342 343 0
324 342 -343 0
-323 -342 343 0
-323 -324 343 0
321 322 -344 0
321 343 -344 0
-322 -343 344 0
322 343 -344 0
-321 -343 344 0
-321 -322 344 0
319 320 -345 0
319 344 -345 0
-320 -344 345 0
320 344 -345 0
-319 -344 345 0
-319 -320 345 0
317 318 -346 0
317 345 -346 0
-318 -345 346 0
318 345 -346 0
-317 -345 346 0
-317 -318 346 0
315 316 -347 0
315 346 -347 0
-316 -346 347 0
316 346 -347 0
-315 -346 347 0
-315 -316 347 0
313 314 -348 0
313 347 -348 0
-314 -347 348 0
314 347 -348 0
-313 -347 348 0
-313 -314 348 0
311 312 -349 0
311 348 -349 0
-312 -348 349 0
312 348 -349 0
-311 -348 349 0
-311 -312 349 0
309 310 -350 0
309 349 -350 0
-310 -349 350 0
310 349 -350 0
-309 -349 350 0
-309 -310 350 0
307 308 -351 0
307 350 -351 0
-308 -350 351 0
308 350 -351 0
-307 -350 351 0
-307 -308 351 0
305 306 -352 0
305 351 -352 0
-306 -351 352 0
306 351 -352 0
-305 -351 352 0
-305 -306 352 0
303 304 -353 0
303 352 -353 0
-304 -352 353 0
304 352 -353 0
-303 -352 353 0
-303 -304 353 0
301 302 -354 0
301 353 -354 0
-302 -353 354 0
302 353 -354 0
-301 -353 354 0
-301 -302 354 0
299 300 -355 0
299 354 -355 0
-300 -354 355 0
300 354 -355 0
-299 -354 355 0
-299 -300 355 0
297 298 -356 0
297 355 -356 0
-298 -355 356 0
298 355 -356 0
-297 -355 356 0
-297 -298 356 0
295 296 -357 0
295 356 -357 0
-296 -356 357 0
296 356 -357 0
-295 -356 357 0
-295 -296 357 0
293 294 -358 0
293 357 -358 0
-294 -357 358 0
294 357 -358 0
-293 -357 358 0
-293 -294 358 0
291 292 -359 0
291 358 -359 0
-292 -358 359 0
292 358 -359 0
-291 -358 359 0
-291 -292 359 0
289 290 -360 0
289 359 -360 0
-290 -359 360 0
290 359 -360 0
-289 -359 360 0
-289 -290 360 0
287 288 -361 0
287 360 -361 0
-288 -360 361 0
288 360 -361 0
-287 -360 361 0
-287 -288 361 0
285 286 -362 0
285 361 -362 0
-286 -361 362 0
286 361 -362 0
-285 -361 362 0
-285 -286 362 0
283 284 -363 0
283 362 -363 0
-284 -362 363 0
284 362 -363 0
-283 -362 363 0
-283 -284 363 0
281 282 -364 0
281 363 -364 0
-282 -363 364 0
282 363 -364 0
-281 -363 364 0
-281 -282 364 0
279 280 -365 0
279 364 -365 0
-280 -364 365 0
280 364 -365 0
-279 -364 365 0
-279 -280 365 0
277 278 -366 0
277 365 -366 0
-278 -365 366 0
278 365 -366 0
-277 -365 366 0
-277 -278 366 0
275 276 -367 0
275 366 -367 0
-276 -366 367 0
276 366 -367 0
-275 -366 367 0
-275 -276 367 0
273 274 -368 0
273 367 -368 0
-274 -367 368 0
274 367 -368 0
-273 -367 368 0
-273 -274 368 0
271 272 -369 0
271 368 -369 0
-272 -368 369 0
272 368 -369 0
-271 -368 369 0
-271 -272 369 0
269 270 -370 0
269 369 -370 0
-270 -369 370 0
270 369 -370 0
-269 -369 370 0
-269 -270 370 0
267 268 -371 0
267 370 -371 0
-268 -370 371 0
268 370 -371 0
-267 -370 371 0
-267 -268 371 0
265 266 -372 0
265 371 -372 0
-266 -371 372 0
266 371 -372 0
-265 -371 372 0
-265 -266 372 0
263 264 -373 0
263 372 -373 0
-264 -372 373 0
264 372 -373 0
-263 -372 373 0
-263 -264 373 0
261 262 -374 0
261 373 -374 0
-262 -373 374 0
262 373 -374 0
-261 -373 374 0
-261 -262 374 0
259 260 -375 0
259 374 -375 0
-260 -374 375 0
260 374 -375 0
-259 -374 375 0
-259 -260 375 0
257 258 -376 0
257 375 -376 0
-258 -375 376 0
258 375 -376 0
-257 -375 376 0
-257 -258 376 0
255 256 -377 0
255 376 -377 0
-256 -376 377 0
256 376 -377 0
-255 -376 377 0
-255 -256 377 0
253 254 -378 0
253 377 -378 0
-254 -377 378 0
254 377 -378 0
-253 -377 378 0
-253 -254 378 0
251 252 -379 0
251 378 -379 0
-252 -378 379 0
252 378 -379 0
-251 -378 379 0
-251 -252 379 0
249 250 -380 0
249 379 -380 0
-250 -379 380 0
250 379 -380 0
-249 -379 380 0
-249 -250 380 0
247 248 -381 0
247 380 -381 0
-248 -380 381 0
248 380 -381 0
-247 -380 381 0
-247 -248 381 0
245 246 -382 0
245 381 -382 0
-246 -381 382 0
246 381 -382 0
-245 -381 382 0
-245 -246 382 0
243 244 -383 0
243 382 -383 0
-244 -382 383 0
244 382 -383 0
-243 -382 383 0
-243 -244 383 0
241 242 -384 0
241 383 -384 0
-242 -383 384 0
242 383 -384 0
-241 -383 384 0
-241 -242 384 0
239 240 -385 0
239 384 -385 0
-240 -384 385 0
240 384 -385 0
-239 -384 385 0
-239 -240 385 0
237 238 -386 0
237 385 -386 0
-238 -385 386 0
238 385 -386 0
-237 -385 386 0
-237 -238 386 0
235 236 -387 0
235 386 -387 0
-236 -386 387 0
236 386 -387 0
-235 -386 387 0
-235 -236 387 0
233 234 -388 0
233 387 -388 0
-234 -387 388 0
234 387 -388 0
-233 -387 388 0
-233 -234 388 0
231 232 -389 0
231 388 -389 0
-232 -388 389 0
232 388 -389 0
-231 -388 389 0
-231 -232 389 0
229 230 -390 0
229 389 -390 0
-230 -389 390 0
230 389 -390 0
-229 -389 390 0
-229 -230 390 0
227 228 -391 0
227 390 -391 0
-228 -390 391 0
228 390 -391 0
-227 -390 391 0
-227 -228 391 0
225 226 -392 0
225 391 -392 0
-226 -391 392 0
226 391 -392 0
-225 -391 392 0
-225 -226 392 0
1 224 392 -393 0
1 224 -392 393 0
1 -224 392 393 0
1 -224 -392 -393 0
-1 224 392 393 0
-1 224 -392 -393 0
-1 -224 392 -393 0
-1 -224 -392 393 0
393 0
